(set-info :smt-lib-version 2.6)
(set-logic QF_UFLRA)
(set-info :source |
MathSat group

|)
(set-info :category "random")
(set-info :status sat)
(declare-fun x0 () Real)
(declare-fun x1 () Real)
(declare-fun x2 () Real)
(declare-fun x3 () Real)
(declare-fun x4 () Real)
(declare-fun x5 () Real)
(declare-fun x6 () Real)
(declare-fun x7 () Real)
(declare-fun x8 () Real)
(declare-fun x9 () Real)
(declare-fun x10 () Real)
(declare-fun x11 () Real)
(declare-fun x12 () Real)
(declare-fun x13 () Real)
(declare-fun x14 () Real)
(declare-fun x15 () Real)
(declare-fun x16 () Real)
(declare-fun x17 () Real)
(declare-fun x18 () Real)
(declare-fun x19 () Real)
(declare-fun x20 () Real)
(declare-fun x21 () Real)
(declare-fun x22 () Real)
(declare-fun x23 () Real)
(declare-fun x24 () Real)
(declare-fun x25 () Real)
(declare-fun x26 () Real)
(declare-fun x27 () Real)
(declare-fun x28 () Real)
(declare-fun x29 () Real)
(declare-fun f0_1 (Real) Real)
(declare-fun f0_2 (Real Real) Real)
(declare-fun f0_3 (Real Real Real) Real)
(declare-fun f0_4 (Real Real Real Real) Real)
(declare-fun P0 () Bool)
(declare-fun P1 () Bool)
(declare-fun P2 () Bool)
(declare-fun P3 () Bool)
(declare-fun P4 () Bool)
(declare-fun P5 () Bool)
(declare-fun P6 () Bool)
(declare-fun P7 () Bool)
(declare-fun P8 () Bool)
(declare-fun P9 () Bool)
(declare-fun P10 () Bool)
(declare-fun P11 () Bool)
(declare-fun P12 () Bool)
(declare-fun P13 () Bool)
(declare-fun P14 () Bool)
(declare-fun P15 () Bool)
(declare-fun P16 () Bool)
(declare-fun P17 () Bool)
(declare-fun P18 () Bool)
(declare-fun P19 () Bool)
(declare-fun P20 () Bool)
(declare-fun P21 () Bool)
(declare-fun P22 () Bool)
(declare-fun P23 () Bool)
(declare-fun P24 () Bool)
(declare-fun P25 () Bool)
(declare-fun P26 () Bool)
(declare-fun P27 () Bool)
(declare-fun P28 () Bool)
(declare-fun P29 () Bool)
(assert (let ((?v_26 (distinct (- (- (* 42 x0) (* 19 x18)) (* 34 x7)) 23)) (?v_27 (< (- (+ (* 35 x10) (* 15 x5)) (* 20 x7)) 41)) (?v_6 (* 35 x13))) (let ((?v_78 (= (+ (- (* 16 x21) ?v_6) (* 36 x27)) 2)) (?v_44 (<= (- (+ (* 7 x7) (* 14 x8)) (* 20 x29)) 6)) (?v_154 (< (- (- (* 5 x10) (* 14 x11)) (* 25 x22)) 32)) (?v_113 (< (+ (- (* 38 x2) (* 19 x23)) (* 25 x19)) 33)) (?v_17 (f0_1 x0))) (let ((?v_28 (distinct (f0_2 x21 x22) ?v_17)) (?v_83 (distinct x1 (f0_2 x24 x2))) (?v_2 (distinct ?v_17 (f0_2 x6 x25))) (?v_36 (= x25 x20)) (?v_66 (= (f0_2 x0 x4) (f0_2 x7 x17))) (?v_10 (f0_1 x20))) (let ((?v_139 (distinct x11 ?v_10)) (?v_143 (distinct (f0_2 x0 x5) x15)) (?v_30 (= (f0_2 x11 x22) (f0_2 x26 x15))) (?v_22 (distinct (f0_1 x9) (f0_2 x17 x10))) (?v_9 (f0_1 x4))) (let ((?v_133 (= (f0_2 x13 x5) ?v_9)) (?v_1 (= (f0_2 x23 x25) ?v_9)) (?v_85 (f0_1 x26))) (let ((?v_60 (= ?v_85 (f0_2 x25 x9))) (?v_142 (= (f0_2 x13 x25) (f0_2 x17 x2))) (?v_110 (distinct (f0_2 x3 x13) x21)) (?v_106 (= ?v_85 (f0_2 x1 x13))) (?v_23 (distinct (f0_2 x29 x20) (f0_1 x15))) (?v_126 (= (f0_2 x0 x7) (f0_1 x13))) (?v_32 (f0_1 x22))) (let ((?v_56 (distinct ?v_32 (f0_2 x5 x14))) (?v_69 (distinct x22 (f0_2 x13 x19))) (?v_29 (distinct x6 (f0_1 x5))) (?v_107 (= x20 (f0_2 x23 x13))) (?v_3 (= (f0_2 x17 x22) ?v_32)) (?v_76 (= (f0_2 x19 x7) (f0_2 x7 x10))) (?v_19 (= ?v_10 (f0_1 x10))) (?v_35 (= x29 x22)) (?v_50 (distinct (f0_1 x23) x24)) (?v_33 (= (f0_1 x27) (f0_2 x20 x24))) (?v_86 (= x28 x6)) (?v_34 (= (f0_1 x3) (f0_2 x8 x6))) (?v_65 (= (f0_2 x10 x26) (f0_2 x1 x29))) (?v_57 (not P7)) (?v_8 (not ?v_66))) (let ((?v_7 (not ?v_76)) (?v_24 (not ?v_60)) (?v_91 (not P29)) (?v_37 (not ?v_2)) (?v_41 (not P21)) (?v_13 (not P25)) (?v_12 (not P16)) (?v_72 (not ?v_36)) (?v_4 (not P15)) (?v_64 (not ?v_27)) (?v_96 (not ?v_110)) (?v_71 (not ?v_78)) (?v_67 (not P2)) (?v_46 (not ?v_139)) (?v_47 (not P13)) (?v_131 (not ?v_126)) (?v_25 (not ?v_19)) (?v_90 (not P3)) (?v_99 (not P12)) (?v_109 (not ?v_23)) (?v_54 (not P8)) (?v_74 (not P24)) (?v_125 (not P18)) (?v_114 (not ?v_26)) (?v_38 (not ?v_22)) (?v_48 (not ?v_30)) (?v_135 (not P10)) (?v_77 (not ?v_142)) (?v_145 (not ?v_33)) (?v_94 (not ?v_34)) (?v_137 (not ?v_35)) (?v_49 (not P23)) (?v_79 (not P22)) (?v_43 (not P4)) (?v_70 (not P9)) (?v_149 (not P11)) (?v_118 (not P14)) (?v_115 (not P1)) (?v_98 (not ?v_154)) (?v_141 (not ?v_50)) (?v_75 (not P5)) (?v_127 (not P27)) (?v_111 (not ?v_143)) (?v_112 (not ?v_29)) (?v_89 (not P17)) (?v_144 (not ?v_65)) (?v_84 (not ?v_69)) (?v_108 (not ?v_44)) (?v_123 (not P6)) (?v_103 (not ?v_56)) (?v_132 (not P28)) (?v_146 (not ?v_106)) (?v_95 (not ?v_28)) (?v_128 (not P26)) (?v_100 (not ?v_1)) (?v_130 (not P19)) (?v_152 (not ?v_83)) (?v_119 (not ?v_3)) (?v_153 (not ?v_86)) (?v_134 (not P0)) (?v_138 (not ?v_133)) (?v_150 (not ?v_107)) (?v_147 (not P20)) (?v_101 (= (+ (* 10 x20) x25 ?v_6) 27))) (let ((?v_14 (not ?v_101)) (?v_81 (< (- (* 14 x10) (* 8 x3)) 7)) (?v_58 (= (- 0 (* 6 x22)) 30))) (let ((?v_18 (not ?v_58)) (?v_21 (<= (- (- x0 (* 7 x5)) (* 27 x23)) 0))) (let ((?v_16 (not ?v_21)) (?v_151 (<= (+ (* 19 x15) (* 42 x26) (* 21 x2)) 6))) (let ((?v_45 (not ?v_151)) (?v_120 (not ?v_81)) (?v_0 (= (- (- (* (- 14) x7) (* 22 x15)) (* 42 x16)) 31)) (?v_11 (< (- (- (* (- 34) x23) (* 12 x19)) (* 40 x11)) 35)) (?v_5 (distinct (- (- (* (- 32) x16) (* 9 x29)) (* 17 x6)) 11))) (let ((?v_93 (not ?v_0)) (?v_55 (= (- (+ (* (- 12) x21) (* 18 x17)) (* 38 x19)) (- 28))) (?v_124 (< (+ (- (* (- 8) x24) (* 5 x25)) (* 23 x2)) (- 10)))) (let ((?v_42 (not ?v_124)) (?v_68 (distinct (+ (* (- 24) x20) (* 22 x6) x7) (- 28)))) (let ((?v_20 (not ?v_68)) (?v_31 (< (- (- (* (- 14) x17) (* 34 x6)) (* 31 x22)) (- 30))) (?v_40 (<= (- (+ (* 42 x6) (* 17 x13)) (* 9 x26)) (- 3))) (?v_129 (<= (- (+ (* (- 28) x17) (* 27 x17)) (* 23 x15)) (- 9))) (?v_97 (not ?v_5)) (?v_15 (<= (- (- (* (- 37) x21) (* 38 x21)) (* 3 x29)) 0)) (?v_52 (<= (- (- (* (- 28) x24) (* 22 x22)) 0) 27))) (let ((?v_116 (not ?v_52)) (?v_53 (not ?v_11)) (?v_39 (<= (+ (- (* (- 24) x11) (* 39 x4)) (* 23 x27)) 25)) (?v_51 (not ?v_15)) (?v_62 (= (- (+ (* 3 x20) (* 29 x16)) (* 27 x6)) (- 29))) (?v_87 (<= (+ (* (- 34) x22) (* 21 x16) (* 22 x13)) 35)) (?v_73 (<= (+ (* (- 19) x4) (* 39 x29) (* 19 x27)) 20)) (?v_63 (not ?v_40)) (?v_59 (distinct (- (- (* 10 x26) (* 35 x4)) (* 5 x23)) (- 36))) (?v_61 (<= (+ (* (- 41) x11) (* 21 x25) (* 7 x23)) 6))) (let ((?v_104 (not ?v_61)) (?v_88 (< (+ (* (- 9) x17) (* 37 x11) (* 21 x15)) 38))) (let ((?v_80 (not ?v_88)) (?v_140 (<= (+ (- (* (- 12) x19) (* 39 x24)) (* 7 x12)) (- 17)))) (let ((?v_92 (not ?v_140)) (?v_102 (not ?v_55)) (?v_82 (not ?v_73)) (?v_121 (not ?v_62)) (?v_122 (not ?v_31)) (?v_105 (not ?v_59)) (?v_117 (not ?v_39)) (?v_148 (not ?v_129)) (?v_136 (not ?v_87))) (and (and (and (and (and (and (and (and (and (and (and (and (and (and (and (and (and (and (and (and (and (and (and (and (and (and (and (and (and (and (and (and (and (and (and (and (and (and (and (and (and (and (and (and (and (and (and (and (and (and (and (and (and (and (and (and (and (and (and (and (and (and (and (and (and (and (and (and (and (and (and (and (and (and (and (and (and (and (and (and (and (and (and (and (and (and (and (and (and (and (and (and (and (and (and (and (and (and (and (and (and (and (and (and (and (and (and (and (and (and (and (and (and (and (and (and (and (and (and (and (and (and (and (and (and (and (and (and (and (and (and (and (and (and (and (and (and (and (and (and (and (and (and (and (and (and (and (and (and (and (and (and (and (and (and (and (and (and (and (and (and (and (and (and (and (and (and (and (and (and (and (and (and (and (and (and (and (and (and (and (and (and (and (and (and (and (and (and (and (and (and (and (and (and (and (and (and (and (and (and (and (and (and (and (and (and (and (and (and (and (and (and (and (and (and (and (and (and (and (and (and (and (and (and (and (and (and (and (and (and (and (and (and (and (and (and (and (and (and (and (and (and (and (and (and (and (and (and (and (and (and (and (and (and (and (and (and (and (and (and (and (and (and (and (and (and (and (and (and (and (and (and (and (and (and (and (and (and (and (and (and (and (and (and (and (and (and (and (and (and (and (and (and (and (and (and (and (and (and (and (and (and (and (and (and (and (and (and (and (and (and (and (and (and (and (and (and (and (and (and (and (and (and (and (and (and (and (and (and (and (and (and (and (and (and (and (and (and (and (and (and (and (and (and (and (and (and (and (and (and (and (and (and (and (and (and (and (and (and (or (or ?v_0 ?v_11) ?v_5) (or (or ?v_93 ?v_86) P2)) (or (or (not ?v_113) ?v_57) P24)) (or (or ?v_55 ?v_8) ?v_42)) (or (or ?v_14 ?v_7) ?v_24)) (or (or ?v_91 ?v_1) P16)) (or (or ?v_37 ?v_41) P5)) (or (or P19 ?v_81) ?v_13)) (or (or ?v_12 ?v_20) ?v_1)) (or (or ?v_31 ?v_0) ?v_3)) (or (or ?v_40 ?v_65) ?v_129)) (or (or P17 P13) ?v_72)) (or (or ?v_4 ?v_2) P5)) (or (or ?v_3 ?v_2) ?v_19)) (or (or ?v_64 ?v_18) ?v_16)) (or (or ?v_96 ?v_4) ?v_5)) (or (or ?v_71 ?v_7) ?v_22)) (or (or ?v_8 P10) ?v_133)) (or (or ?v_67 ?v_46) ?v_97)) (or (or ?v_15 ?v_116) P16)) (or (or ?v_53 ?v_12) ?v_44)) (or (or ?v_47 ?v_13) ?v_39)) (or (or ?v_35 P25) ?v_14)) (or (or ?v_131 ?v_26) ?v_51)) (or (or ?v_16 ?v_28) ?v_18)) (or (or P25 ?v_25) ?v_29)) (or (or ?v_62 ?v_20) ?v_16)) (or (or ?v_21 ?v_90) ?v_22)) (or (or ?v_87 ?v_23) ?v_30)) (or (or ?v_33 ?v_99) ?v_109)) (or (or P4 P28) ?v_54)) (or (or ?v_24 P10) ?v_74)) (or (or P10 P9) ?v_125)) (or (or P23 ?v_25) ?v_114)) (or (or ?v_27 ?v_28) ?v_83)) (or (or ?v_38 ?v_16) ?v_29)) (or (or ?v_22 ?v_48) ?v_135)) (or (or ?v_77 ?v_31) P27)) (or (or ?v_56 ?v_12) ?v_145)) (or (or P14 ?v_45) ?v_69)) (or (or ?v_94 ?v_34) ?v_25)) (or (or P11 ?v_137) ?v_73)) (or (or ?v_5 ?v_49) P18)) (or (or ?v_79 ?v_36) ?v_1)) (or (or ?v_37 ?v_38) P10)) (or (or ?v_39 ?v_38) P14)) (or (or ?v_63 ?v_41) ?v_42)) (or (or P29 ?v_59) ?v_18)) (or (or ?v_43 ?v_43) ?v_70)) (or (or ?v_44 ?v_45) ?v_4)) (or (or ?v_149 ?v_46) ?v_47)) (or (or ?v_118 P5) ?v_4)) (or (or ?v_24 ?v_104) ?v_27)) (or (or ?v_48 ?v_49) ?v_5)) (or (or ?v_50 ?v_50) ?v_115)) (or (or ?v_51 ?v_98) ?v_52)) (or (or ?v_141 ?v_53) ?v_54)) (or (or ?v_55 ?v_56) ?v_57)) (or (or P13 P5) ?v_33)) (or (or ?v_58 ?v_75) ?v_59)) (or (or ?v_127 ?v_111) ?v_80)) (or (or ?v_112 ?v_92) ?v_60)) (or (or ?v_29 ?v_61) ?v_62)) (or (or P13 ?v_63) ?v_51)) (or (or ?v_4 ?v_0) ?v_1)) (or (or ?v_25 ?v_40) ?v_50)) (or (or ?v_54 ?v_89) ?v_55)) (or (or ?v_39 ?v_63) P21)) (or (or P15 ?v_64) ?v_144)) (or (or ?v_66 ?v_102) ?v_0)) (or (or ?v_67 ?v_68) ?v_84)) (or (or ?v_70 ?v_108) ?v_123)) (or (or ?v_62 ?v_65) ?v_18)) (or (or ?v_37 ?v_71) ?v_72)) (or (or P12 ?v_82) ?v_121)) (or (or ?v_103 ?v_74) P12)) (or (or ?v_122 ?v_75) ?v_76)) (or (or ?v_72 ?v_77) ?v_14)) (or (or ?v_78 ?v_28) ?v_79)) (or (or ?v_132 ?v_21) ?v_77)) (or (or ?v_57 ?v_80) P24)) (or (or P23 ?v_120) ?v_82)) (or (or ?v_83 ?v_84) ?v_15)) (or (or ?v_65 ?v_146) ?v_79)) (or (or ?v_47 P29) ?v_44)) (or (or ?v_31 ?v_40) ?v_66)) (or (or ?v_15 ?v_70) ?v_86)) (or (or ?v_95 ?v_87) ?v_19)) (or (or ?v_88 P9) ?v_89)) (or (or ?v_37 ?v_4) ?v_71)) (or (or ?v_65 P22) ?v_58)) (or (or ?v_107 ?v_16) ?v_105)) (or (or P4 ?v_39) ?v_60)) (or (or ?v_1 P22) P14)) (or (or P10 P6) ?v_90)) (or (or ?v_37 ?v_91) P10)) (or (or ?v_92 P3) P21)) (or (or ?v_93 ?v_128) P23)) (or (or P25 ?v_48) ?v_70)) (or (or ?v_4 ?v_100) ?v_14)) (or (or ?v_130 ?v_152) ?v_94)) (or (or ?v_95 ?v_69) ?v_96)) (or (or ?v_40 ?v_89) ?v_97)) (or (or ?v_98 ?v_15) ?v_99)) (or (or ?v_100 ?v_101) ?v_11)) (or (or ?v_102 ?v_4) P27)) (or (or ?v_103 ?v_0) ?v_70)) (or (or P17 P25) ?v_34)) (or (or ?v_104 ?v_105) ?v_106)) (or (or ?v_22 ?v_67) ?v_93)) (or (or ?v_92 ?v_54) ?v_107)) (or (or ?v_119 ?v_108) ?v_22)) (or (or ?v_109 ?v_55) ?v_110)) (or (or ?v_111 ?v_33) ?v_42)) (or (or ?v_20 ?v_99) ?v_34)) (or (or ?v_104 ?v_72) ?v_110)) (or (or ?v_69 ?v_112) P5)) (or (or ?v_55 ?v_117) ?v_105)) (or (or ?v_41 ?v_113) ?v_26)) (or (or ?v_64 ?v_114) ?v_98)) (or (or P1 P18) P11)) (or (or ?v_112 ?v_101) ?v_61)) (or (or P3 P25) ?v_115)) (or (or ?v_3 ?v_96) ?v_42)) (or (or P29 P25) P23)) (or (or P7 ?v_44) ?v_63)) (or (or ?v_3 ?v_153) ?v_116)) (or (or ?v_33 ?v_94) ?v_76)) (or (or ?v_89 ?v_117) ?v_77)) (or (or ?v_8 ?v_118) ?v_119)) (or (or ?v_40 P18) ?v_45)) (or (or ?v_90 ?v_74) ?v_49)) (or (or ?v_120 ?v_121) ?v_109)) (or (or ?v_96 ?v_87) ?v_59)) (or (or P22 ?v_82) ?v_8)) (or (or ?v_60 ?v_63) P22)) (or (or ?v_122 P1) ?v_58)) (or (or ?v_113 ?v_99) ?v_52)) (or (or ?v_47 ?v_56) ?v_25)) (or (or ?v_123 ?v_124) ?v_29)) (or (or ?v_25 ?v_125) ?v_114)) (or (or ?v_69 ?v_30) ?v_23)) (or (or ?v_126 ?v_2) ?v_60)) (or (or ?v_121 P7) ?v_42)) (or (or ?v_50 ?v_14) ?v_105)) (or (or ?v_127 ?v_93) ?v_41)) (or (or ?v_134 ?v_128) ?v_124)) (or (or ?v_96 ?v_95) ?v_14)) (or (or P13 ?v_148) ?v_55)) (or (or ?v_54 ?v_130) ?v_57)) (or (or P8 ?v_131) P4)) (or (or ?v_8 P8) ?v_96)) (or (or ?v_65 ?v_132) ?v_60)) (or (or ?v_98 ?v_96) ?v_18)) (or (or ?v_29 ?v_51) ?v_138)) (or (or ?v_69 ?v_113) ?v_62)) (or (or ?v_49 P17) P11)) (or (or ?v_34 ?v_66) ?v_108)) (or (or ?v_91 ?v_42) ?v_134)) (or (or ?v_13 ?v_136) ?v_48)) (or (or ?v_54 P8) ?v_132)) (or (or ?v_2 P6) P18)) (or (or ?v_94 ?v_126) ?v_135)) (or (or ?v_48 P3) ?v_150)) (or (or ?v_136 ?v_8) ?v_118)) (or (or ?v_109 ?v_33) ?v_124)) (or (or ?v_56 P24) ?v_71)) (or (or ?v_137 P26) ?v_138)) (or (or P2 ?v_63) ?v_35)) (or (or ?v_42 ?v_96) ?v_122)) (or (or ?v_139 ?v_56) ?v_110)) (or (or ?v_92 ?v_140) ?v_99)) (or (or ?v_34 P12) P27)) (or (or ?v_90 P6) ?v_44)) (or (or ?v_112 ?v_3) ?v_51)) (or (or ?v_63 ?v_141) ?v_47)) (or (or ?v_65 ?v_57) ?v_142)) (or (or ?v_141 ?v_55) ?v_44)) (or (or P19 ?v_147) ?v_123)) (or (or ?v_0 ?v_21) ?v_76)) (or (or ?v_43 ?v_28) ?v_61)) (or (or ?v_41 P18) ?v_72)) (or (or ?v_55 ?v_75) ?v_58)) (or (or ?v_127 ?v_135) ?v_89)) (or (or ?v_3 ?v_109) ?v_143)) (or (or ?v_144 ?v_145) ?v_86)) (or (or ?v_102 ?v_65) P0)) (or (or ?v_42 ?v_119) ?v_29)) (or (or ?v_49 ?v_15) ?v_130)) (or (or ?v_146 ?v_38) ?v_132)) (or (or ?v_136 ?v_42) ?v_30)) (or (or ?v_4 ?v_43) P19)) (or (or ?v_122 ?v_146) P25)) (or (or ?v_30 ?v_135) ?v_147)) (or (or ?v_22 ?v_45) ?v_14)) (or (or ?v_2 ?v_38) ?v_39)) (or (or ?v_55 P4) P10)) (or (or P5 ?v_29) P2)) (or (or ?v_98 ?v_116) ?v_38)) (or (or ?v_146 ?v_3) P8)) (or (or ?v_86 ?v_70) ?v_20)) (or (or ?v_110 ?v_66) ?v_46)) (or (or ?v_18 P26) ?v_110)) (or (or P20 ?v_58) ?v_148)) (or (or ?v_99 P13) ?v_128)) (or (or ?v_92 P9) ?v_108)) (or (or P3 ?v_54) ?v_87)) (or (or ?v_140 P23) ?v_149)) (or (or ?v_35 ?v_105) ?v_113)) (or (or ?v_7 P12) ?v_150)) (or (or ?v_121 ?v_62) ?v_21)) (or (or ?v_89 ?v_115) P25)) (or (or ?v_44 ?v_22) ?v_84)) (or (or P10 ?v_31) ?v_7)) (or (or P14 ?v_101) ?v_62)) (or (or ?v_132 ?v_27) ?v_0)) (or (or ?v_42 ?v_150) ?v_1)) (or (or ?v_39 ?v_118) ?v_132)) (or (or ?v_147 ?v_135) P25)) (or (or ?v_39 ?v_28) ?v_99)) (or (or P18 ?v_132) ?v_136)) (or (or P28 ?v_115) ?v_113)) (or (or ?v_27 ?v_96) ?v_15)) (or (or ?v_13 ?v_53) ?v_71)) (or (or ?v_2 P16) ?v_103)) (or (or P6 ?v_50) ?v_93)) (or (or ?v_117 ?v_108) ?v_113)) (or (or ?v_23 P19) ?v_145)) (or (or P6 P18) P24)) (or (or ?v_60 ?v_16) ?v_11)) (or (or ?v_46 ?v_138) P7)) (or (or P5 ?v_102) ?v_91)) (or (or ?v_121 ?v_143) ?v_142)) (or (or ?v_38 ?v_13) ?v_151)) (or (or ?v_29 ?v_60) ?v_92)) (or (or P12 ?v_132) ?v_41)) (or (or P4 ?v_151) ?v_42)) (or (or ?v_42 ?v_43) ?v_86)) (or (or ?v_25 ?v_124) ?v_136)) (or (or P19 P11) ?v_55)) (or (or ?v_136 ?v_108) ?v_152)) (or (or P1 ?v_56) ?v_125)) (or (or ?v_94 ?v_149) ?v_122)) (or (or ?v_27 ?v_40) P19)) (or (or ?v_110 ?v_111) P26)) (or (or ?v_12 ?v_49) P9)) (or (or ?v_125 ?v_127) ?v_126)) (or (or P2 ?v_14) ?v_128)) (or (or ?v_74 ?v_46) ?v_30)) (or (or P22 P6) ?v_23)) (or (or ?v_30 ?v_56) ?v_44)) (or (or ?v_132 ?v_15) ?v_78)) (or (or ?v_60 P9) ?v_72)) (or (or ?v_67 ?v_55) ?v_97)) (or (or ?v_99 ?v_58) ?v_150)) (or (or P15 ?v_62) P19)) (or (or ?v_105 ?v_99) ?v_8)) (or (or ?v_53 ?v_24) ?v_115)) (or (or ?v_60 P7) ?v_151)) (or (or P15 ?v_67) ?v_134)) (or (or ?v_134 ?v_100) ?v_79)) (or (or P20 P9) ?v_62)) (or (or ?v_52 ?v_80) ?v_67)) (or (or P2 ?v_43) P26)) (or (or ?v_137 ?v_135) ?v_36)) (or (or ?v_50 ?v_141) ?v_70)) (or (or ?v_150 P6) ?v_35)) (or (or ?v_91 P29) ?v_113)) (or (or ?v_151 ?v_89) ?v_5)) (or (or ?v_121 ?v_73) ?v_37)) (or (or P0 P12) P22)) (or (or ?v_150 ?v_132) ?v_69)) (or (or ?v_117 ?v_1) P7)) (or (or ?v_3 ?v_43) ?v_91)) (or (or ?v_129 ?v_132) ?v_39)) (or (or ?v_152 ?v_121) ?v_31)) (or (or P21 ?v_137) P27)) (or (or ?v_7 ?v_131) ?v_48)) (or (or ?v_147 ?v_151) ?v_131)) (or (or P19 ?v_46) ?v_54)) (or (or ?v_20 P27) ?v_13)) (or (or ?v_144 ?v_144) ?v_81)) (or (or ?v_72 ?v_149) P16)) (or (or ?v_113 ?v_19) ?v_109)) (or (or ?v_103 P21) ?v_51)) (or (or P25 ?v_111) ?v_23)) (or (or ?v_94 ?v_7) ?v_152)) (or (or ?v_140 ?v_18) ?v_52)) (or (or ?v_18 ?v_80) ?v_15)) (or (or ?v_30 P7) ?v_140)) (or (or ?v_153 P16) ?v_7)) (or (or ?v_148 ?v_104) ?v_29)) (or (or ?v_59 ?v_61) ?v_41)) (or (or P4 ?v_25) P28)) (or (or ?v_47 ?v_89) ?v_114)) (or (or ?v_83 ?v_111) ?v_120)) (or (or ?v_146 P9) ?v_81)) (or (or ?v_39 ?v_87) ?v_127)) (or (or ?v_136 ?v_114) P0)) (or (or ?v_5 P22) ?v_119)) (or (or ?v_33 ?v_22) ?v_31)) (or (or P20 P4) P17)) (or (or ?v_89 ?v_82) P2)) (or (or ?v_82 ?v_18) P8)) (or (or ?v_47 ?v_152) ?v_127)) (or (or ?v_82 ?v_135) P17)) (or (or ?v_133 ?v_78) ?v_25)) (or (or ?v_154 ?v_140) P22)) (or (or ?v_130 ?v_22) ?v_14)) (or (or ?v_16 ?v_93) ?v_40)) (or (or ?v_91 P8) ?v_35)) (or (or ?v_141 P4) ?v_135)) (or (or ?v_126 ?v_99) ?v_153)) (or (or ?v_114 P19) ?v_63)) (or (or ?v_68 ?v_57) ?v_42)) (or (or ?v_127 ?v_99) ?v_142)) (or (or ?v_72 ?v_5) ?v_95)) (or (or ?v_16 ?v_101) ?v_62)) (or (or ?v_13 ?v_1) ?v_119)) (or (or ?v_89 ?v_39) P25)) (or (or ?v_110 ?v_104) ?v_114)) (or (or ?v_74 ?v_66) ?v_92)) (or (or ?v_63 ?v_42) P4)) (or (or ?v_149 ?v_118) ?v_92)) (or (or ?v_108 ?v_66) ?v_71)) (or (or ?v_152 ?v_50) P1)) (or (or ?v_70 ?v_125) ?v_26)) (or (or ?v_63 ?v_138) ?v_97)) (or (or ?v_98 ?v_90) ?v_23)) (or (or ?v_5 P16) P27)) (or (or P15 ?v_129) ?v_92)) (or (or ?v_125 ?v_115) ?v_27)) (or (or ?v_59 ?v_127) P29)) (or (or ?v_112 P18) ?v_25)) (or (or P23 ?v_11) ?v_1)) (or (or ?v_38 ?v_150) P7)) (or (or ?v_125 ?v_37) ?v_114)) (or (or ?v_67 ?v_92) ?v_39)) (or (or P9 ?v_129) ?v_99)) (or (or P12 ?v_136) ?v_150)) (or (or ?v_3 P20) P14)) (or (or ?v_140 ?v_139) ?v_132)) (or (or P25 ?v_65) ?v_55)) (or (or ?v_39 ?v_29) ?v_55)) (or (or ?v_22 ?v_18) ?v_127)) (or (or ?v_75 P7) ?v_90)) (or (or ?v_27 ?v_138) ?v_63)) (or (or P16 ?v_50) ?v_103)) (or (or ?v_53 ?v_141) ?v_82)) (or (or ?v_107 ?v_35) ?v_44)) (or (or ?v_45 ?v_4) P18)) (or (or ?v_37 ?v_148) ?v_14)) (or (or ?v_34 ?v_151) ?v_37)) (or (or ?v_48 ?v_25) ?v_136)) (or (or ?v_120 ?v_50) ?v_108)) (or (or ?v_35 ?v_22) ?v_125)) (or (or ?v_37 ?v_131) ?v_144)) (or (or P0 P16) ?v_110)) (or (or ?v_57 ?v_47) ?v_120)) (or (or ?v_116 ?v_29) ?v_7))))))))))))))))))))))
(check-sat)
(exit)
